0 17 12 41 17 20 43 14 6 12 27 6
30 0 22 9 17 7 12 6 22 44 24 24
15 45 0 2 8 27 43 22 11 19 32 49
17 18 17 0 23 21 9 40 28 21 1 5
4 16 42 27 0 47 38 42 22 7 11 15
19 21 42 35 18 0 6 44 35 45 24 20
22 29 30 1 5 19 0 17 10 38 29 9
41 21 23 43 45 24 32 0 31 50 41 6
19 16 43 6 13 12 30 48 0 34 3 21
44 2 14 1 48 42 35 4 9 0 30 2
39 17 17 30 12 48 19 31 35 16 0 48
42 10 34 6 41 25 26 5 47 2 36 0
